p cnf 83 187
a 8 2 15 9 3 16 1 7 14 21 28 36 32 51 40 46 56 61 0
d 67 8 9 0
d 74 36 51 0
d 41 2 3 0
d 47 2 3 0
d 52 40 46 0
d 78 56 61 0
d 4 2 3 0
d 5 1 2 3 0
d 6 1 2 3 0
d 10 8 9 0
d 11 7 8 9 0
d 12 7 8 9 0
d 13 1 2 3 7 8 9 0
d 17 15 16 0
d 18 14 15 16 0
d 19 14 15 16 0
d 20 1 2 3 7 8 9 14 15 16 0
d 22 1 7 0
d 23 2 3 0
d 24 1 7 2 3 0
d 25 21 1 7 2 3 0
d 26 21 1 7 2 3 0
d 27 1 2 3 7 8 9 14 15 16 21 0
d 29 28 8 9 0
d 30 28 8 9 0
d 31 1 2 3 7 8 9 14 15 16 21 28 0
d 33 32 15 16 0
d 34 32 15 16 0
d 35 1 2 3 7 8 9 14 15 16 21 28 32 0
d 37 36 32 0
d 38 36 32 0
d 39 1 2 3 7 8 9 14 15 16 21 28 32 36 0
d 42 2 3 28 0
d 43 40 2 3 28 0
d 44 40 2 3 28 0
d 45 1 2 3 7 8 9 14 15 16 21 28 32 36 40 0
d 48 46 2 3 0
d 49 46 2 3 0
d 50 1 2 3 7 8 9 14 15 16 21 28 32 36 40 46 0
d 53 51 40 46 0
d 54 51 40 46 0
d 55 1 2 3 7 8 9 14 15 16 21 28 32 36 40 46 51 0
d 57 32 40 46 0
d 58 56 32 40 46 0
d 59 56 32 40 46 0
d 60 1 2 3 7 8 9 14 15 16 21 28 32 36 40 46 51 56 0
d 62 15 16 0
d 63 15 16 0
d 64 61 15 16 0
d 65 61 15 16 0
d 66 1 2 3 7 8 9 14 15 16 21 28 32 36 40 46 51 56 61 0
d 68 8 9 0
d 69 8 9 0
d 70 2 3 28 0
d 71 1 7 0
d 72 2 3 28 1 7 0
d 73 8 9 2 3 28 1 7 0
d 75 14 21 0
d 76 36 51 14 21 0
d 77 8 9 2 3 28 1 7 36 51 14 21 0
d 79 14 21 0
d 80 14 21 15 16 0
d 81 56 61 14 21 15 16 0
d 82 8 9 2 3 28 1 7 36 51 14 21 56 61 15 16 0
d 83 1 2 3 7 8 9 14 15 16 21 28 32 36 40 46 51 56 61 0
4 -2 3 0
4 2 -3 0
-4 -2 -3 0
-4 2 3 0
5 -1 -4 0
5 1 4 0
-5 -1 4 0
-5 1 -4 0
6 5 0
-6 -5 0
10 -8 9 0
10 8 -9 0
-10 -8 -9 0
-10 8 9 0
11 -7 -10 0
11 7 10 0
-11 -7 10 0
-11 7 -10 0
12 11 0
-12 -11 0
13 -6 0
13 -12 0
-13 6 12 0
17 -15 16 0
17 15 -16 0
-17 -15 -16 0
-17 15 16 0
18 -14 -17 0
18 14 17 0
-18 -14 17 0
-18 14 -17 0
19 18 0
-19 -18 0
20 -13 0
20 -19 0
-20 13 19 0
-22 1 0
-22 7 0
22 -1 -7 0
-23 2 0
-23 3 0
23 -2 -3 0
24 -22 0
24 -23 0
-24 22 23 0
25 -21 -24 0
25 21 24 0
-25 -21 24 0
-25 21 -24 0
26 25 0
-26 -25 0
27 -20 0
27 -26 0
-27 20 26 0
29 -28 -10 0
29 28 10 0
-29 -28 10 0
-29 28 -10 0
30 29 0
-30 -29 0
31 -27 0
31 -30 0
-31 27 30 0
33 -32 -17 0
33 32 17 0
-33 -32 17 0
-33 32 -17 0
34 33 0
-34 -33 0
35 -31 0
35 -34 0
-35 31 34 0
37 -36 -32 0
37 36 32 0
-37 -36 32 0
-37 36 -32 0
38 37 0
-38 -37 0
39 -35 0
39 -38 0
-39 35 38 0
-42 41 0
-42 28 0
42 -41 -28 0
43 -40 -42 0
43 40 42 0
-43 -40 42 0
-43 40 -42 0
44 43 0
-44 -43 0
45 -39 0
45 -44 0
-45 39 44 0
48 -46 -47 0
48 46 47 0
-48 -46 47 0
-48 46 -47 0
49 48 0
-49 -48 0
50 -45 0
50 -49 0
-50 45 49 0
53 -51 -52 0
53 51 52 0
-53 -51 52 0
-53 51 -52 0
54 53 0
-54 -53 0
55 -50 0
55 -54 0
-55 50 54 0
-57 32 0
-57 52 0
57 -32 -52 0
58 -56 -57 0
58 56 57 0
-58 -56 57 0
-58 56 -57 0
59 58 0
-59 -58 0
60 -55 0
60 -59 0
-60 55 59 0
-62 15 0
-62 16 0
62 -15 -16 0
63 62 0
-63 -62 0
64 -61 -63 0
64 61 63 0
-64 -61 63 0
-64 61 -63 0
65 64 0
-65 -64 0
66 -60 0
66 -65 0
-66 60 65 0
-68 8 0
-68 9 0
68 -8 -9 0
69 -67 -68 0
69 67 68 0
-69 -67 68 0
-69 67 -68 0
70 -41 28 0
70 41 -28 0
-70 -41 -28 0
-70 41 28 0
71 -1 7 0
71 1 -7 0
-71 -1 -7 0
-71 1 7 0
72 -70 -71 0
72 70 71 0
-72 -70 71 0
-72 70 -71 0
-73 69 0
-73 72 0
73 -69 -72 0
75 -14 21 0
75 14 -21 0
-75 -14 -21 0
-75 14 21 0
76 -74 -75 0
76 74 75 0
-76 -74 75 0
-76 74 -75 0
-77 73 0
-77 76 0
77 -73 -76 0
-79 14 0
-79 21 0
79 -14 -21 0
80 -79 0
80 -62 0
-80 79 62 0
81 -78 -80 0
81 78 80 0
-81 -78 80 0
-81 78 -80 0
-82 77 0
-82 81 0
82 -77 -81 0
83 -66 0
83 -82 0
-83 66 82 0
83 0
